Route #1: 1 3 35 49 41 45 7 32 31 21 28 13 1
Route #2: 1 8 38 34 10 50 44 12 37 25 1
Route #3: 1 15 14 4 23 39 47 24 1
Route #4: 1 16 18 43 9 22 11 1
Route #5: 1 17 26 5 48 27 19 1
Route #6: 1 30 20 29 33 2 1
Route #7: 1 42 46 40 36 1
Route #8: 1 6 1
cost 1400.0407551261678
